33D32945 STP File, STP Format Version 1.0

SECTION Comments
Name "cube_n15_d2_s3"
Problem "Euclidean Steiner Tree Problem"
Remark "Generated with STPGenerator. 2 dimensions."
END

SECTION Graph
Nodes 15
END

SECTION Coordinates
DD 0 0.5613801752 0.2249833128
DD 1 0.3930917794 0.4439383934
DD 2 0.2850412509 0.1447810513
DD 3 0.5635544996 0.8646787037
DD 4 0.8954018363 0.2308046744
DD 5 0.0040116059 0.4605808875
DD 6 0.1763232952 0.6261662299
DD 7 0.9448735988 0.8460845993
DD 8 0.0099969395 0.2570808750
DD 9 0.0407533725 0.4439474528
DD 10 0.1744425461 0.3665206686
DD 11 0.0588192782 0.5624328081
DD 12 0.1339392146 0.8786863870
DD 13 0.5684438560 0.5212840333
DD 14 0.2068786268 0.8687753225
END
